
param K :=
3038.938
;
 
param ProcV :=
1 65.13365
2 64.86797
3 62.24277
4 62.58584
;
 
param demand :=
1 3100
2 3100
3 3100
4 3100
;
 
param cost :
1 2 3 4 :=
1
0
6
8
12
2
6
0
3
6
3
8
3
0
3
4
12
6
3
0
;
 
